c description: Random 3-CNF over 13 variables and 39 clauses
p cnf 13 39
-1 2 -4 0
1 -3 -4 0
2 6 10 0
10 -12 -13 0
5 -6 -12 0
2 -7 11 0
-2 5 -11 0
2 -10 -11 0
-7 -8 -9 0
2 6 -12 0
11 -12 13 0
6 -8 10 0
1 7 8 0
-7 8 9 0
-3 -5 8 0
-1 6 -8 0
-1 3 -13 0
4 9 -12 0
-2 9 11 0
8 9 -11 0
-4 11 -13 0
7 -11 12 0
4 -6 7 0
-1 5 -9 0
4 -5 6 0
1 -6 8 0
1 -8 9 0
-7 8 -9 0
-8 -10 13 0
-3 4 5 0
7 11 -13 0
-1 -7 -10 0
2 -5 -10 0
8 -9 -13 0
-5 -7 -9 0
3 8 -13 0
-6 -11 13 0
8 -9 13 0
6 -10 -13 0